
Gurobi 12.0.3 (linux64) logging started Fri Jan  2 04:16:00 2026

Set parameter LogFile to value "/home/bazzo/Scrivania/fjsp_rescheduling/simulations/logs/EX19/gurobi_exp19.log"
Set parameter OutputFlag to value 1
Set parameter TimeLimit to value 2160
Set parameter Presolve to value 2
Set parameter MIPFocus to value 3
Set parameter Heuristics to value 0.1
Set parameter ImproveStartGap to value 0.5
Set parameter Presolve to value 2
Gurobi Optimizer version 12.0.3 build v12.0.3rc0 (linux64 - "Ubuntu 22.04.5 LTS")

CPU model: Intel(R) Xeon(R) W-2145 CPU @ 3.70GHz, instruction set [SSE2|AVX|AVX2|AVX512]
Thread count: 8 physical cores, 16 logical processors, using up to 16 threads

Non-default parameters:
TimeLimit  2160
Heuristics  0.1
MIPFocus  3
Presolve  2
ImproveStartGap  0.5

Optimize a model with 1054 rows, 607 columns and 3907 nonzeros
Model fingerprint: 0x768d69bb
Model has 6 quadratic constraints
Variable types: 6 continuous, 601 integer (558 binary)
Coefficient statistics:
  Matrix range     [1e+00, 3e+03]
  QMatrix range    [1e+00, 1e+00]
  QLMatrix range   [1e+00, 1e+00]
  Objective range  [1e+00, 1e+00]
  Bounds range     [1e+00, 1e+00]
  RHS range        [1e+00, 8e+03]
Presolve removed 656 rows and 423 columns
Presolve time: 0.01s
Presolved: 398 rows, 184 columns, 2094 nonzeros
Presolved model has 6 quadratic constraint(s)
Variable types: 6 continuous, 178 integer (160 binary)
Root relaxation presolve removed 6 rows and 10 columns
Root relaxation presolved: 392 rows, 178 columns, 2069 nonzeros


Root relaxation: objective 7.060000e+02, 29 iterations, 0.00 seconds (0.00 work units)

    Nodes    |    Current Node    |     Objective Bounds      |     Work
 Expl Unexpl |  Obj  Depth IntInf | Incumbent    BestBd   Gap | It/Node Time

H    0     0                    82046.000000  706.00000  99.1%     -    0s
*    0     0               0    82046.000000  706.00000  99.1%     -    0s
     0     0  706.00000    0   13 82046.0000  706.00000  99.1%     -    0s
     0     0  706.00000    0   11 82046.0000  706.00000  99.1%     -    0s
H    0     0                    56100.000000  706.00000  98.7%     -    0s
     0     0  706.00000    0   12 56100.0000  706.00000  98.7%     -    0s
H    0     0                    50006.000000  718.45405  98.6%     -    0s
H    0     0                    28956.000000  718.45405  97.5%     -    0s
H    0     0                    23006.000000  718.45405  96.9%     -    0s
H    0     0                    20270.000000  718.45405  96.5%     -    0s
H    0     0                    19406.000000  718.45405  96.3%     -    0s
H    0     0                    17199.000000  718.45405  95.8%     -    0s
     0     0 12281.0000    0   10 17199.0000 12281.0000  28.6%     -    0s

Resetting heuristic parameters to focus on improving solution
(using Heuristics=0.5 and RINS=10)...

     0     0 12281.0000    0   18 17199.0000 12281.0000  28.6%     -    0s
     0     0 12281.0000    0   13 17199.0000 12281.0000  28.6%     -    0s
     0     0 12281.0000    0   19 17199.0000 12281.0000  28.6%     -    0s
     0     0 12281.0000    0   15 17199.0000 12281.0000  28.6%     -    0s
     0     0 12281.0000    0   15 17199.0000 12281.0000  28.6%     -    0s
     0     0 12281.0000    0   14 17199.0000 12281.0000  28.6%     -    0s
     0     0 12281.0000    0   17 17199.0000 12281.0000  28.6%     -    0s
     0     0 16670.0000    0    4 17199.0000 16670.0000  3.08%     -    0s

Explored 1 nodes (408 simplex iterations) in 0.17 seconds (0.11 work units)
Thread count was 16 (of 16 available processors)

Solution count 10: 17199 17199 19406 ... 82046

Optimal solution found (tolerance 1.00e-04)
Best objective 1.719900000000e+04, best bound 1.719900000000e+04, gap 0.0000%

User-callback calls 1055, time in user-callback 0.00 sec
Set parameter TimeLimit to value 1080
Gurobi Optimizer version 12.0.3 build v12.0.3rc0 (linux64 - "Ubuntu 22.04.5 LTS")

CPU model: Intel(R) Xeon(R) W-2145 CPU @ 3.70GHz, instruction set [SSE2|AVX|AVX2|AVX512]
Thread count: 8 physical cores, 16 logical processors, using up to 16 threads

Non-default parameters:
TimeLimit  1080
Heuristics  0.1
MIPFocus  3
Presolve  2
ImproveStartGap  0.5

Optimize a model with 1055 rows, 607 columns and 3913 nonzeros
Model fingerprint: 0xd504b2a5
Model has 6 quadratic constraints
Variable types: 6 continuous, 601 integer (558 binary)
Coefficient statistics:
  Matrix range     [1e+00, 3e+03]
  QMatrix range    [1e+00, 1e+00]
  QLMatrix range   [1e+00, 1e+00]
  Objective range  [5e-01, 5e-01]
  Bounds range     [1e+00, 1e+00]
  RHS range        [1e+00, 2e+04]

MIP start from previous solve produced solution with objective 24 (0.00s)
Loaded MIP start from previous solve with objective 24

Presolve removed 1051 rows and 597 columns
Presolve time: 0.01s
Presolved: 4 rows, 10 columns, 11 nonzeros
Presolved model has 5 quadratic constraint(s)
Found heuristic solution: objective 5.0000000
Variable types: 5 continuous, 5 integer (0 binary)

Explored 0 nodes (0 simplex iterations) in 0.01 seconds (0.01 work units)
Thread count was 16 (of 16 available processors)

Solution count 2: 5 24 

Optimal solution found (tolerance 1.00e-04)
Best objective 5.000000000000e+00, best bound 5.000000000000e+00, gap 0.0000%

User-callback calls 1338, time in user-callback 0.00 sec
Set parameter TimeLimit to value 360
Gurobi Optimizer version 12.0.3 build v12.0.3rc0 (linux64 - "Ubuntu 22.04.5 LTS")

CPU model: Intel(R) Xeon(R) W-2145 CPU @ 3.70GHz, instruction set [SSE2|AVX|AVX2|AVX512]
Thread count: 8 physical cores, 16 logical processors, using up to 16 threads

Non-default parameters:
TimeLimit  360
Heuristics  0.1
MIPFocus  3
Presolve  2
ImproveStartGap  0.5

Optimize a model with 1057 rows, 607 columns and 3967 nonzeros
Model fingerprint: 0x52fb6bee
Model has 6 quadratic constraints
Variable types: 6 continuous, 601 integer (558 binary)
Coefficient statistics:
  Matrix range     [5e-01, 3e+03]
  QMatrix range    [1e+00, 1e+00]
  QLMatrix range   [1e+00, 1e+00]
  Objective range  [1e+00, 1e+00]
  Bounds range     [1e+00, 1e+00]
  RHS range        [1e+00, 2e+04]

MIP start from previous solve produced solution with objective 576 (0.00s)
Loaded MIP start from previous solve with objective 576

Presolve removed 1053 rows and 597 columns
Presolve time: 0.01s
Presolved: 4 rows, 10 columns, 11 nonzeros
Presolved model has 5 quadratic constraint(s)
Variable types: 5 continuous, 5 integer (0 binary)

Explored 0 nodes (0 simplex iterations) in 0.01 seconds (0.01 work units)
Thread count was 16 (of 16 available processors)

Solution count 1: 576 

Optimal solution found (tolerance 1.00e-04)
Best objective 5.760000000000e+02, best bound 5.760000000000e+02, gap 0.0000%

User-callback calls 1265, time in user-callback 0.00 sec
